true true true
feasible solution found by trivial heuristic after 0.0 seconds, objective value 1.060000e+02
presolving:
presolving (0 rounds: 0 fast, 0 medium, 0 exhaustive):
 0 deleted vars, 0 deleted constraints, 0 added constraints, 0 tightened bounds, 0 added holes, 0 changed sides, 0 changed coefficients
 0 implications, 0 cliques
presolved problem has 106 variables (106 bin, 0 int, 0 impl, 0 cont) and 96 constraints
     96 constraints of type <linear>
transformed objective value is always integral (scale: 1)
Presolving Time: 0.00
transformed 1/1 original solutions to the transformed problem space

 time | node  | left  |LP iter|LP it/n|mem/heur|mdpt |vars |cons |rows |cuts |sepa|confs|strbr|  dualbound   | primalbound  |  gap   | compl. 
p 0.0s|     1 |     0 |     0 |     - |   locks|   0 | 106 |  96 |  96 |   0 |  0 |   0 |   0 |      --      | 1.000000e+01 |    Inf | unknown
 time | node  | left  |LP iter|LP it/n|mem/heur|mdpt |vars |cons |rows |cuts |sepa|confs|strbr|  dualbound   | primalbound  |  gap   | compl. 
  0.0s|     1 |     0 |    32 |     - |  2751k |   0 | 684 |  96 |  96 |   0 |  0 |   0 |   0 | 1.000000e+00 | 1.000000e+01 | 900.00%| unknown
 time | node  | left  |LP iter|LP it/n|mem/heur|mdpt |vars |cons |rows |cuts |sepa|confs|strbr|  dualbound   | primalbound  |  gap   | compl. 
 6118s|     1 |     0 |  5407 |     - |    52M |   0 |  15k|  96 |  96 |   0 |  0 |   0 |   0 | 9.000000e+00 | 1.000000e+01 |  11.11%| unknown
 time | node  | left  |LP iter|LP it/n|mem/heur|mdpt |vars |cons |rows |cuts |sepa|confs|strbr|  dualbound   | primalbound  |  gap   | compl. 
 6121s|     1 |     2 |  7069 |     - |    59M |   0 |  15k|  96 |  96 |   0 |  1 |   0 |   0 | 9.000000e+00 | 1.000000e+01 |  11.11%| unknown
 time | node  | left  |LP iter|LP it/n|mem/heur|mdpt |vars |cons |rows |cuts |sepa|confs|strbr|  dualbound   | primalbound  |  gap   | compl. 
 6121s|     2 |     3 |  7187 | 118.0 |    60M |   1 |  15k|  96 |  96 |   0 |  1 |   0 |   0 | 9.000000e+00 | 1.000000e+01 |  11.11%| unknown
 time | node  | left  |LP iter|LP it/n|mem/heur|mdpt |vars |cons |rows |cuts |sepa|confs|strbr|  dualbound   | primalbound  |  gap   | compl. 
 6122s|     3 |     4 |  7239 |  85.0 |    62M |   1 |  15k|  96 |  96 |   0 |  1 |   0 |   0 | 9.000000e+00 | 1.000000e+01 |  11.11%| unknown
 time | node  | left  |LP iter|LP it/n|mem/heur|mdpt |vars |cons |rows |cuts |sepa|confs|strbr|  dualbound   | primalbound  |  gap   | compl. 
 6124s|     4 |     5 |  7256 |  62.3 |    64M |   2 |  15k|  96 |  96 |   0 |  1 |   0 |   0 | 9.000000e+00 | 1.000000e+01 |  11.11%| unknown
 time | node  | left  |LP iter|LP it/n|mem/heur|mdpt |vars |cons |rows |cuts |sepa|confs|strbr|  dualbound   | primalbound  |  gap   | compl. 
 6125s|     5 |     6 |  7296 |  56.8 |    64M |   3 |  15k|  96 |  96 |   0 |  1 |   0 |   0 | 9.000000e+00 | 1.000000e+01 |  11.11%| unknown
 time | node  | left  |LP iter|LP it/n|mem/heur|mdpt |vars |cons |rows |cuts |sepa|confs|strbr|  dualbound   | primalbound  |  gap   | compl. 
 6126s|     6 |     7 |  7299 |  46.0 |    64M |   4 |  15k|  96 |  96 |   0 |  1 |   0 |   0 | 9.000000e+00 | 1.000000e+01 |  11.11%| unknown
 time | node  | left  |LP iter|LP it/n|mem/heur|mdpt |vars |cons |rows |cuts |sepa|confs|strbr|  dualbound   | primalbound  |  gap   | compl. 
 6128s|     7 |     8 |  7360 |  48.5 |    66M |   5 |  15k|  96 |  96 |   0 |  1 |   0 |   0 | 9.000000e+00 | 1.000000e+01 |  11.11%| unknown
 time | node  | left  |LP iter|LP it/n|mem/heur|mdpt |vars |cons |rows |cuts |sepa|confs|strbr|  dualbound   | primalbound  |  gap   | compl. 
 6130s|     8 |     9 |  7483 |  59.1 |    67M |   5 |  15k|  96 |  96 |   0 |  1 |   0 |   0 | 9.000000e+00 | 1.000000e+01 |  11.11%| unknown
 time | node  | left  |LP iter|LP it/n|mem/heur|mdpt |vars |cons |rows |cuts |sepa|confs|strbr|  dualbound   | primalbound  |  gap   | compl. 
 6132s|     9 |    10 |  7612 |  67.9 |    67M |   6 |  15k|  96 |  96 |   0 |  1 |   0 |   0 | 9.000000e+00 | 1.000000e+01 |  11.11%| unknown
 time | node  | left  |LP iter|LP it/n|mem/heur|mdpt |vars |cons |rows |cuts |sepa|confs|strbr|  dualbound   | primalbound  |  gap   | compl. 
 6134s|    10 |    11 |  7703 |  70.4 |    69M |   7 |  15k|  96 |  96 |   0 |  1 |   0 |   0 | 9.000000e+00 | 1.000000e+01 |  11.11%| unknown
 time | node  | left  |LP iter|LP it/n|mem/heur|mdpt |vars |cons |rows |cuts |sepa|confs|strbr|  dualbound   | primalbound  |  gap   | compl. 
 6138s|    11 |    12 |  9152 | 208.3 |    77M |   8 |  15k|  96 |  96 |   0 |  1 |   0 |   0 | 9.000000e+00 | 1.000000e+01 |  11.11%| unknown
 time | node  | left  |LP iter|LP it/n|mem/heur|mdpt |vars |cons |rows |cuts |sepa|confs|strbr|  dualbound   | primalbound  |  gap   | compl. 
 6140s|    12 |    13 |  9220 | 195.5 |    77M |   8 |  15k|  96 |  96 |   0 |  1 |   0 |   0 | 9.000000e+00 | 1.000000e+01 |  11.11%| unknown
 time | node  | left  |LP iter|LP it/n|mem/heur|mdpt |vars |cons |rows |cuts |sepa|confs|strbr|  dualbound   | primalbound  |  gap   | compl. 
 6143s|    13 |    14 |  9229 | 180.0 |    77M |   8 |  15k|  96 |  96 |   0 |  1 |   0 |   0 | 9.000000e+00 | 1.000000e+01 |  11.11%| unknown
 time | node  | left  |LP iter|LP it/n|mem/heur|mdpt |vars |cons |rows |cuts |sepa|confs|strbr|  dualbound   | primalbound  |  gap   | compl. 
 6146s|    14 |    15 |  9445 | 182.8 |    77M |   9 |  15k|  96 |  96 |   0 |  1 |   0 |   0 | 9.000000e+00 | 1.000000e+01 |  11.11%| unknown
 time | node  | left  |LP iter|LP it/n|mem/heur|mdpt |vars |cons |rows |cuts |sepa|confs|strbr|  dualbound   | primalbound  |  gap   | compl. 
 6150s|    15 |    16 |  9503 | 173.9 |    78M |   9 |  15k|  96 |  96 |   0 |  1 |   0 |   0 | 9.000000e+00 | 1.000000e+01 |  11.11%| unknown
 time | node  | left  |LP iter|LP it/n|mem/heur|mdpt |vars |cons |rows |cuts |sepa|confs|strbr|  dualbound   | primalbound  |  gap   | compl. 
 6153s|    16 |    17 |  9521 | 163.5 |    78M |  10 |  15k|  96 |  96 |   0 |  1 |   0 |   0 | 9.000000e+00 | 1.000000e+01 |  11.11%| unknown
 time | node  | left  |LP iter|LP it/n|mem/heur|mdpt |vars |cons |rows |cuts |sepa|confs|strbr|  dualbound   | primalbound  |  gap   | compl. 
 6156s|    17 |    18 |  9654 | 161.6 |    78M |  11 |  15k|  96 |  96 |   0 |  1 |   0 |   0 | 9.000000e+00 | 1.000000e+01 |  11.11%| unknown
 time | node  | left  |LP iter|LP it/n|mem/heur|mdpt |vars |cons |rows |cuts |sepa|confs|strbr|  dualbound   | primalbound  |  gap   | compl. 
 6160s|    18 |    19 | 10970 | 229.5 |    80M |  12 |  15k|  96 |  96 |   0 |  1 |   0 |   0 | 9.000000e+00 | 1.000000e+01 |  11.11%| unknown
 time | node  | left  |LP iter|LP it/n|mem/heur|mdpt |vars |cons |rows |cuts |sepa|confs|strbr|  dualbound   | primalbound  |  gap   | compl. 
 6164s|    19 |    20 | 11171 | 227.9 |    80M |  12 |  15k|  96 |  96 |   0 |  1 |   0 |   0 | 9.000000e+00 | 1.000000e+01 |  11.11%| unknown
 time | node  | left  |LP iter|LP it/n|mem/heur|mdpt |vars |cons |rows |cuts |sepa|confs|strbr|  dualbound   | primalbound  |  gap   | compl. 
 6168s|    20 |    21 | 11230 | 219.0 |    80M |  12 |  15k|  96 |  96 |   0 |  1 |   0 |   0 | 9.000000e+00 | 1.000000e+01 |  11.11%| unknown
 time | node  | left  |LP iter|LP it/n|mem/heur|mdpt |vars |cons |rows |cuts |sepa|confs|strbr|  dualbound   | primalbound  |  gap   | compl. 
 6172s|    21 |    22 | 11867 | 239.9 |    81M |  12 |  15k|  96 |  96 |   0 |  1 |   0 |   0 | 9.000000e+00 | 1.000000e+01 |  11.11%| unknown
 time | node  | left  |LP iter|LP it/n|mem/heur|mdpt |vars |cons |rows |cuts |sepa|confs|strbr|  dualbound   | primalbound  |  gap   | compl. 
 6176s|    22 |    23 | 11966 | 233.2 |    81M |  12 |  15k|  96 |  96 |   0 |  1 |   0 |   0 | 9.000000e+00 | 1.000000e+01 |  11.11%| unknown
 time | node  | left  |LP iter|LP it/n|mem/heur|mdpt |vars |cons |rows |cuts |sepa|confs|strbr|  dualbound   | primalbound  |  gap   | compl. 
 6180s|    23 |    24 | 13324 | 284.3 |    85M |  12 |  15k|  96 |  96 |   0 |  1 |   0 |   0 | 9.000000e+00 | 1.000000e+01 |  11.11%| unknown
 time | node  | left  |LP iter|LP it/n|mem/heur|mdpt |vars |cons |rows |cuts |sepa|confs|strbr|  dualbound   | primalbound  |  gap   | compl. 
 6184s|    24 |    25 | 13616 | 284.7 |    85M |  12 |  15k|  96 |  96 |   0 |  1 |   0 |   0 | 9.000000e+00 | 1.000000e+01 |  11.11%| unknown
 time | node  | left  |LP iter|LP it/n|mem/heur|mdpt |vars |cons |rows |cuts |sepa|confs|strbr|  dualbound   | primalbound  |  gap   | compl. 
 6188s|    25 |    26 | 15581 | 354.7 |    87M |  12 |  15k|  96 |  96 |   0 |  1 |   0 |   0 | 9.000000e+00 | 1.000000e+01 |  11.11%| unknown
 time | node  | left  |LP iter|LP it/n|mem/heur|mdpt |vars |cons |rows |cuts |sepa|confs|strbr|  dualbound   | primalbound  |  gap   | compl. 
 6192s|    26 |    27 | 15645 | 343.0 |    88M |  12 |  15k|  96 |  96 |   0 |  1 |   0 |   0 | 9.000000e+00 | 1.000000e+01 |  11.11%| unknown
 time | node  | left  |LP iter|LP it/n|mem/heur|mdpt |vars |cons |rows |cuts |sepa|confs|strbr|  dualbound   | primalbound  |  gap   | compl. 
 6196s|    27 |    28 | 16480 | 362.0 |    89M |  13 |  15k|  96 |  96 |   0 |  1 |   0 |   0 | 9.000000e+00 | 1.000000e+01 |  11.11%| unknown
 time | node  | left  |LP iter|LP it/n|mem/heur|mdpt |vars |cons |rows |cuts |sepa|confs|strbr|  dualbound   | primalbound  |  gap   | compl. 
 6200s|    28 |    29 | 16505 | 349.5 |    89M |  13 |  15k|  96 |  96 |   0 |  1 |   0 |   0 | 9.000000e+00 | 1.000000e+01 |  11.11%| unknown
 time | node  | left  |LP iter|LP it/n|mem/heur|mdpt |vars |cons |rows |cuts |sepa|confs|strbr|  dualbound   | primalbound  |  gap   | compl. 
 6204s|    29 |    30 | 16871 | 350.1 |    89M |  13 |  15k|  96 |  96 |   0 |  1 |   0 |   0 | 9.000000e+00 | 1.000000e+01 |  11.11%| unknown
 time | node  | left  |LP iter|LP it/n|mem/heur|mdpt |vars |cons |rows |cuts |sepa|confs|strbr|  dualbound   | primalbound  |  gap   | compl. 
 6207s|    30 |    31 | 16993 | 342.2 |    89M |  13 |  15k|  96 |  96 |   0 |  1 |   0 |   0 | 9.000000e+00 | 1.000000e+01 |  11.11%| unknown
 time | node  | left  |LP iter|LP it/n|mem/heur|mdpt |vars |cons |rows |cuts |sepa|confs|strbr|  dualbound   | primalbound  |  gap   | compl. 
 6211s|    31 |    32 | 18390 | 377.4 |    89M |  14 |  15k|  96 |  96 |   0 |  1 |   0 |   0 | 9.000000e+00 | 1.000000e+01 |  11.11%| unknown
 time | node  | left  |LP iter|LP it/n|mem/heur|mdpt |vars |cons |rows |cuts |sepa|confs|strbr|  dualbound   | primalbound  |  gap   | compl. 
 6215s|    32 |    33 | 18447 | 367.0 |    89M |  14 |  15k|  96 |  96 |   0 |  1 |   0 |   0 | 9.000000e+00 | 1.000000e+01 |  11.11%| unknown
 time | node  | left  |LP iter|LP it/n|mem/heur|mdpt |vars |cons |rows |cuts |sepa|confs|strbr|  dualbound   | primalbound  |  gap   | compl. 
 6219s|    33 |    34 | 19291 | 381.9 |    89M |  14 |  15k|  96 |  96 |   0 |  1 |   0 |   0 | 9.000000e+00 | 1.000000e+01 |  11.11%| unknown
 time | node  | left  |LP iter|LP it/n|mem/heur|mdpt |vars |cons |rows |cuts |sepa|confs|strbr|  dualbound   | primalbound  |  gap   | compl. 
 6223s|    34 |    35 | 19344 | 372.0 |    89M |  14 |  15k|  96 |  96 |   0 |  1 |   0 |   0 | 9.000000e+00 | 1.000000e+01 |  11.11%| unknown
 time | node  | left  |LP iter|LP it/n|mem/heur|mdpt |vars |cons |rows |cuts |sepa|confs|strbr|  dualbound   | primalbound  |  gap   | compl. 
 6228s|    35 |    36 | 20458 | 393.8 |    89M |  14 |  15k|  96 |  96 |   0 |  1 |   0 |   0 | 9.000000e+00 | 1.000000e+01 |  11.11%| unknown
 time | node  | left  |LP iter|LP it/n|mem/heur|mdpt |vars |cons |rows |cuts |sepa|confs|strbr|  dualbound   | primalbound  |  gap   | compl. 
 6232s|    36 |    37 | 20724 | 390.1 |    89M |  14 |  15k|  96 |  96 |   0 |  1 |   0 |   0 | 9.000000e+00 | 1.000000e+01 |  11.11%| unknown
 time | node  | left  |LP iter|LP it/n|mem/heur|mdpt |vars |cons |rows |cuts |sepa|confs|strbr|  dualbound   | primalbound  |  gap   | compl. 
 6238s|    37 |    38 | 22111 | 417.8 |    92M |  14 |  16k|  96 |  96 |   0 |  1 |   0 |   0 | 9.000000e+00 | 1.000000e+01 |  11.11%| unknown
 time | node  | left  |LP iter|LP it/n|mem/heur|mdpt |vars |cons |rows |cuts |sepa|confs|strbr|  dualbound   | primalbound  |  gap   | compl. 
 6242s|    38 |    39 | 22235 | 409.9 |    92M |  14 |  16k|  96 |  96 |   0 |  1 |   0 |   0 | 9.000000e+00 | 1.000000e+01 |  11.11%| unknown
 time | node  | left  |LP iter|LP it/n|mem/heur|mdpt |vars |cons |rows |cuts |sepa|confs|strbr|  dualbound   | primalbound  |  gap   | compl. 
 6247s|    39 |    40 | 23213 | 424.8 |    92M |  14 |  16k|  96 |  96 |   0 |  1 |   0 |   0 | 9.000000e+00 | 1.000000e+01 |  11.11%| unknown
 time | node  | left  |LP iter|LP it/n|mem/heur|mdpt |vars |cons |rows |cuts |sepa|confs|strbr|  dualbound   | primalbound  |  gap   | compl. 
 6251s|    40 |    41 | 23327 | 416.9 |    92M |  14 |  16k|  96 |  96 |   0 |  1 |   0 |   0 | 9.000000e+00 | 1.000000e+01 |  11.11%| unknown
 time | node  | left  |LP iter|LP it/n|mem/heur|mdpt |vars |cons |rows |cuts |sepa|confs|strbr|  dualbound   | primalbound  |  gap   | compl. 
 6256s|    41 |    42 | 24349 | 432.0 |    92M |  14 |  16k|  96 |  96 |   0 |  1 |   0 |   0 | 9.000000e+00 | 1.000000e+01 |  11.11%| unknown
 time | node  | left  |LP iter|LP it/n|mem/heur|mdpt |vars |cons |rows |cuts |sepa|confs|strbr|  dualbound   | primalbound  |  gap   | compl. 
 6261s|    42 |    43 | 24561 | 426.6 |    92M |  14 |  16k|  96 |  96 |   0 |  1 |   0 |   0 | 9.000000e+00 | 1.000000e+01 |  11.11%| unknown
 time | node  | left  |LP iter|LP it/n|mem/heur|mdpt |vars |cons |rows |cuts |sepa|confs|strbr|  dualbound   | primalbound  |  gap   | compl. 
 6266s|    43 |    44 | 26084 | 452.7 |    92M |  14 |  16k|  96 |  96 |   0 |  1 |   0 |   0 | 9.000000e+00 | 1.000000e+01 |  11.11%| unknown
 time | node  | left  |LP iter|LP it/n|mem/heur|mdpt |vars |cons |rows |cuts |sepa|confs|strbr|  dualbound   | primalbound  |  gap   | compl. 
 6270s|    44 |    45 | 26225 | 445.5 |    92M |  14 |  16k|  96 |  96 |   0 |  1 |   0 |   0 | 9.000000e+00 | 1.000000e+01 |  11.11%| unknown
 time | node  | left  |LP iter|LP it/n|mem/heur|mdpt |vars |cons |rows |cuts |sepa|confs|strbr|  dualbound   | primalbound  |  gap   | compl. 
 6275s|    45 |    46 | 27385 | 461.7 |    94M |  14 |  16k|  96 |  96 |   0 |  1 |   0 |   0 | 9.000000e+00 | 1.000000e+01 |  11.11%| unknown
 time | node  | left  |LP iter|LP it/n|mem/heur|mdpt |vars |cons |rows |cuts |sepa|confs|strbr|  dualbound   | primalbound  |  gap   | compl. 
 6279s|    46 |    47 | 27410 | 452.0 |    94M |  14 |  16k|  96 |  96 |   0 |  1 |   0 |   0 | 9.000000e+00 | 1.000000e+01 |  11.11%| unknown
 time | node  | left  |LP iter|LP it/n|mem/heur|mdpt |vars |cons |rows |cuts |sepa|confs|strbr|  dualbound   | primalbound  |  gap   | compl. 
 6283s|    47 |    48 | 28627 | 468.7 |    94M |  14 |  16k|  96 |  96 |   0 |  1 |   0 |   0 | 9.000000e+00 | 1.000000e+01 |  11.11%| unknown
 time | node  | left  |LP iter|LP it/n|mem/heur|mdpt |vars |cons |rows |cuts |sepa|confs|strbr|  dualbound   | primalbound  |  gap   | compl. 
 6287s|    48 |    49 | 29395 | 475.0 |    94M |  14 |  16k|  96 |  96 |   0 |  1 |   0 |   0 | 9.000000e+00 | 1.000000e+01 |  11.11%| unknown
 time | node  | left  |LP iter|LP it/n|mem/heur|mdpt |vars |cons |rows |cuts |sepa|confs|strbr|  dualbound   | primalbound  |  gap   | compl. 
 6290s|    49 |    50 | 30652 | 491.3 |    94M |  14 |  16k|  96 |  96 |   0 |  1 |   0 |   0 | 9.000000e+00 | 1.000000e+01 |  11.11%| unknown
 time | node  | left  |LP iter|LP it/n|mem/heur|mdpt |vars |cons |rows |cuts |sepa|confs|strbr|  dualbound   | primalbound  |  gap   | compl. 
 6295s|    50 |    51 | 30685 | 482.0 |    95M |  14 |  16k|  96 |  96 |   0 |  1 |   0 |   0 | 9.000000e+00 | 1.000000e+01 |  11.11%| unknown
 time | node  | left  |LP iter|LP it/n|mem/heur|mdpt |vars |cons |rows |cuts |sepa|confs|strbr|  dualbound   | primalbound  |  gap   | compl. 
 6301s|    51 |    52 | 32074 | 500.1 |    95M |  14 |  16k|  96 |  96 |   0 |  1 |   0 |   0 | 9.000000e+00 | 1.000000e+01 |  11.11%| unknown
 time | node  | left  |LP iter|LP it/n|mem/heur|mdpt |vars |cons |rows |cuts |sepa|confs|strbr|  dualbound   | primalbound  |  gap   | compl. 
 6306s|    52 |    53 | 32389 | 496.5 |    95M |  14 |  16k|  96 |  96 |   0 |  1 |   0 |   0 | 9.000000e+00 | 1.000000e+01 |  11.11%| unknown
 time | node  | left  |LP iter|LP it/n|mem/heur|mdpt |vars |cons |rows |cuts |sepa|confs|strbr|  dualbound   | primalbound  |  gap   | compl. 
 6311s|    53 |    54 | 33308 | 504.6 |    95M |  14 |  16k|  96 |  96 |   0 |  1 |   0 |   0 | 9.000000e+00 | 1.000000e+01 |  11.11%| unknown
 time | node  | left  |LP iter|LP it/n|mem/heur|mdpt |vars |cons |rows |cuts |sepa|confs|strbr|  dualbound   | primalbound  |  gap   | compl. 
 6315s|    54 |    55 | 33342 | 495.7 |    95M |  14 |  16k|  96 |  96 |   0 |  1 |   0 |   0 | 9.000000e+00 | 1.000000e+01 |  11.11%| unknown
 time | node  | left  |LP iter|LP it/n|mem/heur|mdpt |vars |cons |rows |cuts |sepa|confs|strbr|  dualbound   | primalbound  |  gap   | compl. 
 6320s|    55 |    56 | 34270 | 503.7 |    95M |  15 |  16k|  96 |  96 |   0 |  1 |   0 |   0 | 9.000000e+00 | 1.000000e+01 |  11.11%| unknown
 time | node  | left  |LP iter|LP it/n|mem/heur|mdpt |vars |cons |rows |cuts |sepa|confs|strbr|  dualbound   | primalbound  |  gap   | compl. 
 6325s|    56 |    57 | 34323 | 495.5 |    95M |  15 |  16k|  96 |  96 |   0 |  1 |   0 |   0 | 9.000000e+00 | 1.000000e+01 |  11.11%| unknown
 time | node  | left  |LP iter|LP it/n|mem/heur|mdpt |vars |cons |rows |cuts |sepa|confs|strbr|  dualbound   | primalbound  |  gap   | compl. 
 6330s|    57 |    58 | 34854 | 496.2 |    95M |  15 |  16k|  96 |  96 |   0 |  1 |   0 |   0 | 9.000000e+00 | 1.000000e+01 |  11.11%| unknown
 time | node  | left  |LP iter|LP it/n|mem/heur|mdpt |vars |cons |rows |cuts |sepa|confs|strbr|  dualbound   | primalbound  |  gap   | compl. 
 6335s|    58 |    59 | 35015 | 490.3 |    95M |  15 |  16k|  96 |  96 |   0 |  1 |   0 |   0 | 9.000000e+00 | 1.000000e+01 |  11.11%| unknown
 time | node  | left  |LP iter|LP it/n|mem/heur|mdpt |vars |cons |rows |cuts |sepa|confs|strbr|  dualbound   | primalbound  |  gap   | compl. 
 6340s|    59 |    60 | 35648 | 492.7 |    95M |  15 |  16k|  96 |  96 |   0 |  1 |   0 |   0 | 9.000000e+00 | 1.000000e+01 |  11.11%| unknown
 time | node  | left  |LP iter|LP it/n|mem/heur|mdpt |vars |cons |rows |cuts |sepa|confs|strbr|  dualbound   | primalbound  |  gap   | compl. 
 6345s|    60 |    61 | 36516 | 499.1 |    96M |  15 |  17k|  96 |  96 |   0 |  1 |   0 |   0 | 9.000000e+00 | 1.000000e+01 |  11.11%| unknown
 time | node  | left  |LP iter|LP it/n|mem/heur|mdpt |vars |cons |rows |cuts |sepa|confs|strbr|  dualbound   | primalbound  |  gap   | compl. 
 6350s|    61 |    62 | 36681 | 493.5 |    96M |  15 |  17k|  96 |  96 |   0 |  1 |   0 |   0 | 9.000000e+00 | 1.000000e+01 |  11.11%| unknown
 time | node  | left  |LP iter|LP it/n|mem/heur|mdpt |vars |cons |rows |cuts |sepa|confs|strbr|  dualbound   | primalbound  |  gap   | compl. 
 6354s|    62 |    63 | 37150 | 493.1 |    96M |  15 |  17k|  96 |  96 |   0 |  1 |   0 |   0 | 9.000000e+00 | 1.000000e+01 |  11.11%| unknown
 time | node  | left  |LP iter|LP it/n|mem/heur|mdpt |vars |cons |rows |cuts |sepa|confs|strbr|  dualbound   | primalbound  |  gap   | compl. 
 6359s|    63 |    64 | 38741 | 510.8 |    96M |  15 |  17k|  96 |  96 |   0 |  1 |   0 |   0 | 9.000000e+00 | 1.000000e+01 |  11.11%| unknown
 time | node  | left  |LP iter|LP it/n|mem/heur|mdpt |vars |cons |rows |cuts |sepa|confs|strbr|  dualbound   | primalbound  |  gap   | compl. 
 6364s|    64 |    65 | 38756 | 503.0 |    96M |  15 |  17k|  96 |  96 |   0 |  1 |   0 |   0 | 9.000000e+00 | 1.000000e+01 |  11.11%| unknown
 time | node  | left  |LP iter|LP it/n|mem/heur|mdpt |vars |cons |rows |cuts |sepa|confs|strbr|  dualbound   | primalbound  |  gap   | compl. 
 6369s|    65 |    66 | 39999 | 514.5 |    96M |  15 |  17k|  96 |  96 |   0 |  1 |   0 |   0 | 9.000000e+00 | 1.000000e+01 |  11.11%| unknown
 time | node  | left  |LP iter|LP it/n|mem/heur|mdpt |vars |cons |rows |cuts |sepa|confs|strbr|  dualbound   | primalbound  |  gap   | compl. 
 6374s|    66 |    67 | 40465 | 513.8 |    98M |  15 |  17k|  96 |  96 |   0 |  1 |   0 |   0 | 9.000000e+00 | 1.000000e+01 |  11.11%| unknown
 time | node  | left  |LP iter|LP it/n|mem/heur|mdpt |vars |cons |rows |cuts |sepa|confs|strbr|  dualbound   | primalbound  |  gap   | compl. 
 6380s|    67 |    68 | 41866 | 527.2 |   103M |  15 |  18k|  96 |  96 |   0 |  1 |   0 |   0 | 9.000000e+00 | 1.000000e+01 |  11.11%| unknown
 time | node  | left  |LP iter|LP it/n|mem/heur|mdpt |vars |cons |rows |cuts |sepa|confs|strbr|  dualbound   | primalbound  |  gap   | compl. 
 6384s|    68 |    69 | 42127 | 523.3 |   103M |  15 |  18k|  96 |  96 |   0 |  1 |   0 |   0 | 9.000000e+00 | 1.000000e+01 |  11.11%| unknown
 time | node  | left  |LP iter|LP it/n|mem/heur|mdpt |vars |cons |rows |cuts |sepa|confs|strbr|  dualbound   | primalbound  |  gap   | compl. 
 6388s|    69 |    70 | 42209 | 516.8 |   103M |  15 |  18k|  96 |  96 |   0 |  1 |   0 |   0 | 9.000000e+00 | 1.000000e+01 |  11.11%| unknown
 time | node  | left  |LP iter|LP it/n|mem/heur|mdpt |vars |cons |rows |cuts |sepa|confs|strbr|  dualbound   | primalbound  |  gap   | compl. 
 6394s|    70 |    71 | 42543 | 514.1 |   104M |  15 |  18k|  96 |  96 |   0 |  1 |   0 |   0 | 9.000000e+00 | 1.000000e+01 |  11.11%| unknown
 time | node  | left  |LP iter|LP it/n|mem/heur|mdpt |vars |cons |rows |cuts |sepa|confs|strbr|  dualbound   | primalbound  |  gap   | compl. 
 7092s|    71 |    72 | 44570 | 535.7 |   112M |  15 |  19k|  96 |  96 |   0 |  1 |   0 |   0 | 9.000000e+00 | 1.000000e+01 |  11.11%| unknown
 time | node  | left  |LP iter|LP it/n|mem/heur|mdpt |vars |cons |rows |cuts |sepa|confs|strbr|  dualbound   | primalbound  |  gap   | compl. 
 7098s|    72 |    73 | 44878 | 532.5 |   112M |  15 |  19k|  96 |  96 |   0 |  1 |   0 |   0 | 9.000000e+00 | 1.000000e+01 |  11.11%| unknown
 time | node  | left  |LP iter|LP it/n|mem/heur|mdpt |vars |cons |rows |cuts |sepa|confs|strbr|  dualbound   | primalbound  |  gap   | compl. 
 7104s|    73 |    74 | 45800 | 537.9 |   112M |  16 |  19k|  96 |  96 |   0 |  1 |   0 |   0 | 9.000000e+00 | 1.000000e+01 |  11.11%| unknown
 time | node  | left  |LP iter|LP it/n|mem/heur|mdpt |vars |cons |rows |cuts |sepa|confs|strbr|  dualbound   | primalbound  |  gap   | compl. 
 7109s|    74 |    75 | 46048 | 534.0 |   112M |  16 |  19k|  96 |  96 |   0 |  1 |   0 |   0 | 9.000000e+00 | 1.000000e+01 |  11.11%| unknown
 time | node  | left  |LP iter|LP it/n|mem/heur|mdpt |vars |cons |rows |cuts |sepa|confs|strbr|  dualbound   | primalbound  |  gap   | compl. 
 7115s|    75 |    76 | 47970 | 552.7 |   113M |  16 |  20k|  96 |  96 |   0 |  1 |   0 |   0 | 9.000000e+00 | 1.000000e+01 |  11.11%| unknown
 time | node  | left  |LP iter|LP it/n|mem/heur|mdpt |vars |cons |rows |cuts |sepa|confs|strbr|  dualbound   | primalbound  |  gap   | compl. 
 7121s|    76 |    77 | 48226 | 548.8 |   113M |  16 |  20k|  96 |  96 |   0 |  1 |   0 |   0 | 9.000000e+00 | 1.000000e+01 |  11.11%| unknown
 time | node  | left  |LP iter|LP it/n|mem/heur|mdpt |vars |cons |rows |cuts |sepa|confs|strbr|  dualbound   | primalbound  |  gap   | compl. 
 7127s|    77 |    78 | 49940 | 564.1 |   114M |  16 |  20k|  96 |  96 |   0 |  1 |   0 |   0 | 9.000000e+00 | 1.000000e+01 |  11.11%| unknown
 time | node  | left  |LP iter|LP it/n|mem/heur|mdpt |vars |cons |rows |cuts |sepa|confs|strbr|  dualbound   | primalbound  |  gap   | compl. 
 7132s|    78 |    77 | 50009 | 557.7 |   114M |  16 |  20k|  96 |  96 |   0 |  0 |   0 |   0 | 9.000000e+00 | 1.000000e+01 |  11.11%| unknown
 time | node  | left  |LP iter|LP it/n|mem/heur|mdpt |vars |cons |rows |cuts |sepa|confs|strbr|  dualbound   | primalbound  |  gap   | compl. 
 7137s|    79 |    78 | 50187 | 552.8 |   114M |  16 |  20k|  96 |  96 |   0 |  1 |   0 |   0 | 9.000000e+00 | 1.000000e+01 |  11.11%| unknown
 time | node  | left  |LP iter|LP it/n|mem/heur|mdpt |vars |cons |rows |cuts |sepa|confs|strbr|  dualbound   | primalbound  |  gap   | compl. 
 7142s|    80 |    79 | 50664 | 551.8 |   115M |  16 |  20k|  96 |  96 |   0 |  1 |   0 |   0 | 9.000000e+00 | 1.000000e+01 |  11.11%| unknown
 time | node  | left  |LP iter|LP it/n|mem/heur|mdpt |vars |cons |rows |cuts |sepa|confs|strbr|  dualbound   | primalbound  |  gap   | compl. 
 7149s|    81 |    80 | 53270 | 577.5 |   115M |  17 |  20k|  96 |  96 |   0 |  1 |   0 |   0 | 9.000000e+00 | 1.000000e+01 |  11.11%| unknown
 time | node  | left  |LP iter|LP it/n|mem/heur|mdpt |vars |cons |rows |cuts |sepa|confs|strbr|  dualbound   | primalbound  |  gap   | compl. 
 7154s|    82 |    81 | 53498 | 573.2 |   115M |  17 |  20k|  96 |  96 |   0 |  1 |   0 |   0 | 9.000000e+00 | 1.000000e+01 |  11.11%| unknown
 time | node  | left  |LP iter|LP it/n|mem/heur|mdpt |vars |cons |rows |cuts |sepa|confs|strbr|  dualbound   | primalbound  |  gap   | compl. 
 7161s|    83 |    82 | 54485 | 578.2 |   116M |  17 |  20k|  96 |  96 |   0 |  1 |   0 |   0 | 9.000000e+00 | 1.000000e+01 |  11.11%| unknown
 time | node  | left  |LP iter|LP it/n|mem/heur|mdpt |vars |cons |rows |cuts |sepa|confs|strbr|  dualbound   | primalbound  |  gap   | compl. 
 7167s|    84 |    83 | 54601 | 572.7 |   116M |  17 |  20k|  96 |  96 |   0 |  1 |   0 |   0 | 9.000000e+00 | 1.000000e+01 |  11.11%| unknown
 time | node  | left  |LP iter|LP it/n|mem/heur|mdpt |vars |cons |rows |cuts |sepa|confs|strbr|  dualbound   | primalbound  |  gap   | compl. 
 7174s|    85 |    84 | 55124 | 572.1 |   117M |  17 |  20k|  96 |  96 |   0 |  1 |   0 |   0 | 9.000000e+00 | 1.000000e+01 |  11.11%| unknown
 time | node  | left  |LP iter|LP it/n|mem/heur|mdpt |vars |cons |rows |cuts |sepa|confs|strbr|  dualbound   | primalbound  |  gap   | compl. 
 7180s|    86 |    85 | 55753 | 572.8 |   117M |  17 |  20k|  96 |  96 |   0 |  1 |   0 |   0 | 9.000000e+00 | 1.000000e+01 |  11.11%| unknown
 time | node  | left  |LP iter|LP it/n|mem/heur|mdpt |vars |cons |rows |cuts |sepa|confs|strbr|  dualbound   | primalbound  |  gap   | compl. 
 7186s|    87 |    86 | 56023 | 569.2 |   117M |  17 |  20k|  96 |  96 |   0 |  1 |   0 |   0 | 9.000000e+00 | 1.000000e+01 |  11.11%| unknown
 time | node  | left  |LP iter|LP it/n|mem/heur|mdpt |vars |cons |rows |cuts |sepa|confs|strbr|  dualbound   | primalbound  |  gap   | compl. 
 7190s|    88 |    87 | 56232 | 565.1 |   117M |  17 |  20k|  96 |  96 |   0 |  1 |   0 |   0 | 9.000000e+00 | 1.000000e+01 |  11.11%| unknown
 time | node  | left  |LP iter|LP it/n|mem/heur|mdpt |vars |cons |rows |cuts |sepa|confs|strbr|  dualbound   | primalbound  |  gap   | compl. 
 7195s|    89 |    88 | 56596 | 562.8 |   117M |  17 |  20k|  96 |  96 |   0 |  1 |   0 |   0 | 9.000000e+00 | 1.000000e+01 |  11.11%| unknown
 time | node  | left  |LP iter|LP it/n|mem/heur|mdpt |vars |cons |rows |cuts |sepa|confs|strbr|  dualbound   | primalbound  |  gap   | compl. 
 7200s|    90 |    89 | 56843 | 559.3 |   117M |  17 |  20k|  96 |  96 |   0 |  1 |   0 |   0 | 9.000000e+00 | 1.000000e+01 |  11.11%| unknown

SCIP Status        : solving was interrupted [time limit reached]
Solving Time (sec) : 7204.26
Solving Nodes      : 91
Primal Bound       : +1.00000000000000e+01 (236 solutions)
Dual Bound         : +9.00000000000000e+00
Gap                : 11.11 %
Running with parallel: True bidir: True symbreak: True
Number of Nodes:  96
49.47916666666667% holds
starting cheapest insertion heuristic
Heuristic without TSP improvement:  10
Heuristic without TSP improvement time:  0.1
Heuristic Sol:  10
Heuristic total time:  0.5
[[27, 33, 9, 0, 55, 37, 2, 59, 14], [40, 29, 39, 30, 85, 43, 50, 54, 22, 38, 31], [77, 66, 1, 25, 24], [95, 57, 11, 45, 94, 35, 7, 13, 6, 92, 36, 84, 76, 15], [93, 28, 64, 34, 12, 63, 68, 67, 83, 32, 60], [91], [90, 16, 87, 71, 18, 62, 49, 21, 56, 73, 46, 69], [89, 65, 78, 58, 3, 48, 70, 4, 88, 23, 5, 80, 86], [82, 26, 42, 20, 17, 81, 10, 51], [79, 8, 47, 19, 41, 53, 75, 61, 72, 74, 52, 44]]
Instance path:  /home/htc/mghannam/SCRATCH/lccp-rust/data/t84_gr96.npcc
Timelimit:  7200
Heuristic without TSP improvement:  10
Heuristic without TSP improvement time:  0.2
Heuristic Sol:  10
Heuristic total time:  2.0
at 1 zero_duals: 86
at1, LP obj: 10.0 n_added_paths: 578
at 1 zero_duals: 82
at1, LP obj: 10.0 n_added_paths: 68
at 1 zero_duals: 78
at1, LP obj: 10.0 n_added_paths: 201
at 1 zero_duals: 76
at1, LP obj: 10.0 n_added_paths: 255
at 1 zero_duals: 75
at1, LP obj: 10.0 n_added_paths: 364
at 1 zero_duals: 68
at1, LP obj: 10.0 n_added_paths: 758
at 1 zero_duals: 71
at1, LP obj: 10.0 n_added_paths: 804
at 1 zero_duals: 65
at1, LP obj: 10.0 n_added_paths: 884
at 1 zero_duals: 42
at1, LP obj: 9.902777777777779 n_added_paths: 1294
at 1 zero_duals: 32
at1, LP obj: 9.8125 n_added_paths: 1346
at 1 zero_duals: 37
at1, LP obj: 9.714285714285714 n_added_paths: 1242
at 1 zero_duals: 21
at1, LP obj: 9.6 n_added_paths: 1111
at 1 zero_duals: 26
at1, LP obj: 9.5 n_added_paths: 1061
at 1 zero_duals: 18
at1, LP obj: 9.344155844155845 n_added_paths: 1024
at 1 zero_duals: 15
at1, LP obj: 9.236651024448083 n_added_paths: 953
at 1 zero_duals: 12
at1, LP obj: 9.100759711422235 n_added_paths: 793
at 1 zero_duals: 10
at1, LP obj: 8.961419131686732 n_added_paths: 797
at 1 zero_duals: 10
at1, LP obj: 8.772897677759026 n_added_paths: 471
at 1 zero_duals: 6
at1, LP obj: 8.690734666836624 n_added_paths: 305
at 1 zero_duals: 3
Switching to elementary pricing
at1, LP obj: 8.612887292110873 n_added_paths: 572
updated lowerbound from 1.0 to 5
at 1 zero_duals: 3
at1, LP obj: 8.401980790206665 n_added_paths: 121
at 1 zero_duals: 5
at1, LP obj: 8.377599382635953 n_added_paths: 50
at 1 zero_duals: 3
at1, LP obj: 8.36721055169625 n_added_paths: 58
at 1 zero_duals: 2
Switching to elementary pricing
at1, LP obj: 8.359126083144668 n_added_paths: 149
updated lowerbound from 5.0 to 8
at 1 zero_duals: 2
at1, LP obj: 8.327788058605817 n_added_paths: 29
at 1 zero_duals: 2
Switching to elementary pricing
at1, LP obj: 8.319647239697332 n_added_paths: 89
updated lowerbound from 8.0 to 9
Gap too small = 0, stopping pricing with lb = 9
Gap too small = 0, stopping pricing with lb = 9
Gap too small = 0, stopping pricing with lb = 9
Gap too small = 0, stopping pricing with lb = 9
Gap too small = 0, stopping pricing with lb = 9
Gap too small = 0, stopping pricing with lb = 9
Gap too small = 0, stopping pricing with lb = 9
Gap too small = 0, stopping pricing with lb = 9
Gap too small = 0, stopping pricing with lb = 9
Gap too small = 0, stopping pricing with lb = 9
Gap too small = 0, stopping pricing with lb = 9
Gap too small = 0, stopping pricing with lb = 9
Gap too small = 0, stopping pricing with lb = 9
Gap too small = 0, stopping pricing with lb = 9
Gap too small = 0, stopping pricing with lb = 9
Gap too small = 0, stopping pricing with lb = 9
Gap too small = 0, stopping pricing with lb = 9
Gap too small = 0, stopping pricing with lb = 9
Gap too small = 0, stopping pricing with lb = 9
Gap too small = 0, stopping pricing with lb = 9
Gap too small = 0, stopping pricing with lb = 9
Gap too small = 0, stopping pricing with lb = 9
Gap too small = 0, stopping pricing with lb = 9
Gap too small = 0, stopping pricing with lb = 9
Gap too small = 0, stopping pricing with lb = 9
Gap too small = 0, stopping pricing with lb = 9
Gap too small = 0, stopping pricing with lb = 9
Gap too small = 0, stopping pricing with lb = 9
Gap too small = 0, stopping pricing with lb = 9
Gap too small = 0, stopping pricing with lb = 9
Gap too small = 0, stopping pricing with lb = 9
Gap too small = 0, stopping pricing with lb = 9
Gap too small = 0, stopping pricing with lb = 9
Gap too small = 0, stopping pricing with lb = 9
Gap too small = 0, stopping pricing with lb = 9
Gap too small = 0, stopping pricing with lb = 9
at 72 zero_duals: 21
at72, LP obj: 9.343576228132289 n_added_paths: 360
at 72 zero_duals: 20
at72, LP obj: 9.320577567604792 n_added_paths: 573
Gap too small = 0, stopping pricing with lb = 9
Gap too small = 0, stopping pricing with lb = 9
Gap too small = 0, stopping pricing with lb = 9
Gap too small = 0, stopping pricing with lb = 9
Gap too small = 0, stopping pricing with lb = 9
Gap too small = 0, stopping pricing with lb = 9
Gap too small = 0, stopping pricing with lb = 9
Gap too small = 0, stopping pricing with lb = 9
Gap too small = 0, stopping pricing with lb = 9
Gap too small = 0, stopping pricing with lb = 9
Gap too small = 0, stopping pricing with lb = 9
Gap too small = 0, stopping pricing with lb = 9
Gap too small = 0, stopping pricing with lb = 9
Gap too small = 0, stopping pricing with lb = 9
Gap too small = 0, stopping pricing with lb = 9
Gap too small = 0, stopping pricing with lb = 9
Gap too small = 0, stopping pricing with lb = 9
Gap too small = 0, stopping pricing with lb = 9
Gap too small = 0, stopping pricing with lb = 9
Gap too small = 0, stopping pricing with lb = 9
Gap too small = 0, stopping pricing with lb = 9
Gap too small = 0, stopping pricing with lb = 9
Gap too small = 0, stopping pricing with lb = 9
at 55 zero_duals: 19
at55, LP obj: 9.084365503269177 n_added_paths: 839
Gap too small = 0, stopping pricing with lb = 9
Gap too small = 0, stopping pricing with lb = 9
Gap too small = 0, stopping pricing with lb = 9
Gap too small = 0, stopping pricing with lb = 9
Gap too small = 0, stopping pricing with lb = 9
Gap too small = 0, stopping pricing with lb = 9
at 51 zero_duals: 13
at51, LP obj: 9.010245788226909 n_added_paths: 490
Gap too small = 0, stopping pricing with lb = 9
at 132 zero_duals: 14
at132, LP obj: 9.234579618035939 n_added_paths: 461
at 132 zero_duals: 6
at132, LP obj: 9.080756320450941 n_added_paths: 569
Gap too small = 0, stopping pricing with lb = 9
Gap too small = 0, stopping pricing with lb = 9
Gap too small = 0, stopping pricing with lb = 9
Gap too small = 0, stopping pricing with lb = 9
at 140 zero_duals: 18
at140, LP obj: 9.16239228494392 n_added_paths: 257
at 140 zero_duals: 12
at140, LP obj: 9.150282173908975 n_added_paths: 410
at 140 zero_duals: 12
Switching to elementary pricing
at140, LP obj: 9.00717060440655 n_added_paths: 311
Gap too small = 0, stopping pricing with lb = 9
Gap too small = 0, stopping pricing with lb = 9
Gap too small = 0, stopping pricing with lb = 9
Gap too small = 0, stopping pricing with lb = 9
at 148 zero_duals: 17
at148, LP obj: 9.062270144562444 n_added_paths: 273
Gap too small = 0, stopping pricing with lb = 9
Gap too small = 0, stopping pricing with lb = 9
Gap too small = 0, stopping pricing with lb = 9
at 74 zero_duals: 95
Switching to elementary pricing
at74, LP obj: 1e+20 n_added_paths: 0
updated lowerbound from 9.0 to 100000000000000000000
Gap too small = 0, stopping pricing with lb = 9
Gap too small = 0, stopping pricing with lb = 9
Gap too small = 0, stopping pricing with lb = 9
Gap too small = 0, stopping pricing with lb = 9
Gap too small = 0, stopping pricing with lb = 9
Gap too small = 0, stopping pricing with lb = 9
Gap too small = 0, stopping pricing with lb = 9
Gap too small = 0, stopping pricing with lb = 9
Gap too small = 0, stopping pricing with lb = 9
Gap too small = 0, stopping pricing with lb = 9
Gap too small = 0, stopping pricing with lb = 9
Gap too small = 0, stopping pricing with lb = 9
Best solution found:
t_[9, 33, 0, 27, 14, 59, 2, 37, 4, 55, 9] 1.0 1.0
checking cycle [9, 33, 0, 27, 14, 59, 2, 37, 4, 55, 9]
[9, 33, 0, 27, 14, 59, 2, 37, 4, 55, 9] 9698 9380
t_[40, 29, 39, 30, 85, 43, 50, 54, 22, 38, 31, 40] 1.0 1.0
checking cycle [40, 29, 39, 30, 85, 43, 50, 54, 22, 38, 31, 40]
[40, 29, 39, 30, 85, 43, 50, 54, 22, 38, 31, 40] 7706 6377
t_[16, 66, 24, 77, 71, 62, 49, 21, 56, 73, 46, 18, 87, 16] 1.0 1.0
checking cycle [16, 66, 24, 77, 71, 62, 49, 21, 56, 73, 46, 18, 87, 16]
[16, 66, 24, 77, 71, 62, 49, 21, 56, 73, 46, 18, 87, 16] 7608 6711
t_[8, 41, 47, 19, 61, 72, 75, 74, 52, 44, 79, 53, 8] 1.0 1.0
checking cycle [8, 41, 47, 19, 61, 72, 75, 74, 52, 44, 79, 53, 8]
[8, 41, 47, 19, 61, 72, 75, 74, 52, 44, 79, 53, 8] 8211 7548
t_[82, 26, 42, 20, 17, 81, 10, 51, 78, 82] 1.0 1.0
checking cycle [82, 26, 42, 20, 17, 81, 10, 51, 78, 82]
[82, 26, 42, 20, 17, 81, 10, 51, 78, 82] 7955 7948
t_[57, 45, 11, 13, 6, 92, 25, 1, 76, 15, 95, 84, 36, 7, 35, 94, 57] 1.0 1.0
checking cycle [57, 45, 11, 13, 6, 92, 25, 1, 76, 15, 95, 84, 36, 7, 35, 94, 57]
[57, 45, 11, 13, 6, 92, 25, 1, 76, 15, 95, 84, 36, 7, 35, 94, 57] 7118 6755
t_[28, 64, 12, 34, 32, 60, 83, 67, 68, 93, 63, 28] 1.0 1.0
checking cycle [28, 64, 12, 34, 32, 60, 83, 67, 68, 93, 63, 28]
[28, 64, 12, 34, 32, 60, 83, 67, 68, 93, 63, 28] 7232 5637
t_[91, 91] 1.0 1.0
checking cycle [91, 91]
[91, 91] 7324 0
t_[90, 69, 90] 1.0 1.0
checking cycle [90, 69, 90]
[90, 69, 90] 7389 3618
t_[89, 65, 58, 3, 48, 70, 88, 23, 5, 80, 86, 89] 1.0 1.0
checking cycle [89, 65, 58, 3, 48, 70, 88, 23, 5, 80, 86, 89]
[89, 65, 58, 3, 48, 70, 88, 23, 5, 80, 86, 89] 7422 6354
